28 28
22
3 3 0 0
3 4 25 0
3 5 22 23
3 6 25 12
3 7 3 0
3 8 25 4
3 9 0 19
3 10 25 18
3 11 19 0
3 16 0 3
3 17 19 11
3 21 3 7
3 23 22 0
4 3 11 13
4 4 11 24
4 5 15 23
4 8 11 16
4 13 6 0
4 23 15 0
5 6 6 13
5 9 6 19
5 13 10 0
